2
1000 1000
50
45 221 1
57 736 1
83 39 1
118 106 1
121 399 1
125 107 1
126 294 1
132 36 1
137 253 1
145 414 1
202 275 1
280 576 1
304 780 1
326 186 1
344 718 1
430 811 1
440 18 1
442 250 1
467 199 1
474 363 1
496 76 1
521 42 1
524 352 1
569 859 1
575 658 1
582 367 1
592 563 1
594 858 1
600 591 1
605 30 1
618 889 1
661 105 1
671 19 1
671 319 1
676 715 1
686 79 1
706 457 1
712 232 1
749 336 1
758 448 1
766 422 1
776 988 1
780 453 1
834 720 1
843 959 1
864 416 1
887 56 1
898 598 1
922 605 1
972 457 1
